NAME : pia3056
COMMENT : Bonn VLSI data set with 3056 points
COMMENT : Uni Bonn, Research Institute for Discrete Math
COMMENT : Contributed by Andre Rohe
TYPE : TSP
DIMENSION : 3056
EDGE_WEIGHT_TYPE : EUC_2D
NODE_COORD_SECTION
1 0 11
2 0 115
3 0 118
4 0 139
5 0 163
6 0 19
7 0 21
8 0 31
9 0 41
10 0 43
11 0 51
12 0 61
13 0 67
14 0 91
15 0 94
16 2 100
17 2 102
18 2 103
19 2 105
20 2 109
21 2 111
22 2 112
23 2 114
24 2 115
25 2 117
26 2 119
27 2 121
28 2 129
29 2 13
30 2 130
31 2 131
32 2 142
33 2 144
34 2 148
35 2 15
36 2 157
37 2 18
38 2 180
39 2 182
40 2 19
41 2 20
42 2 21
43 2 24
44 2 25
45 2 26
46 2 44
47 2 69
48 2 71
49 2 75
50 2 77
51 2 80
52 2 85
53 2 88
54 2 90
55 2 91
56 2 96
57 5 101
58 5 108
59 5 111
60 5 115
61 5 119
62 5 132
63 5 138
64 5 142
65 5 144
66 5 146
67 5 166
68 5 170
69 5 174
70 5 31
71 5 39
72 5 45
73 5 50
74 5 59
75 5 67
76 5 69
77 5 72
78 5 76
79 5 8
80 5 80
81 5 84
82 5 86
83 5 91
84 5 95
85 5 99
86 8 112
87 8 129
88 8 35
89 8 41
90 8 46
91 8 52
92 8 55
93 8 61
94 8 88
95 9 105
96 9 109
97 9 112
98 9 115
99 9 117
100 9 129
101 9 167
102 9 170
103 9 174
104 9 28
105 9 35
106 9 41
107 9 46
108 9 52
109 9 55
110 9 61
111 9 74
112 9 88
113 9 91
114 9 96
115 10 100
116 10 105
117 10 109
118 10 113
119 10 117
120 10 120
121 10 129
122 10 141
123 10 147
124 10 156
125 10 168
126 10 172
127 10 28
128 10 35
129 10 41
130 10 44
131 10 46
132 10 52
133 10 55
134 10 61
135 10 68
136 10 71
137 10 74
138 10 85
139 10 89
140 10 96
141 11 100
142 11 105
143 11 109
144 11 112
145 11 117
146 11 120
147 11 129
148 11 141
149 11 147
150 11 156
151 11 176
152 11 28
153 11 35
154 11 42
155 11 44
156 11 46
157 11 53
158 11 55
159 11 62
160 11 68
161 11 71
162 11 74
163 11 85
164 11 88
165 11 9
166 11 93
167 11 96
168 12 105
169 12 135
170 12 163
171 12 28
172 12 35
173 12 46
174 12 5
175 12 55
176 12 81
177 12 96
178 15 101
179 15 108
180 15 114
181 15 132
182 15 138
183 15 142
184 15 144
185 15 146
186 15 166
187 15 169
188 15 173
189 15 31
190 15 45
191 15 69
192 15 72
193 15 8
194 15 84
195 15 86
196 15 90
197 15 99
198 16 121
199 16 148
200 16 157
201 17 103
202 17 188
203 17 19
204 17 20
205 17 21
206 17 25
207 17 26
208 18 106
209 18 107
210 18 188
211 18 29
212 18 30
213 18 32
214 18 33
215 18 36
216 18 37
217 18 39
218 18 40
219 18 41
220 18 47
221 18 48
222 18 50
223 18 51
224 18 52
225 18 56
226 18 57
227 18 59
228 18 60
229 18 61
230 18 64
231 18 65
232 18 66
233 18 97
234 18 98
235 25 100
236 25 102
237 25 104
238 25 105
239 25 106
240 25 112
241 25 124
242 25 125
243 25 126
244 25 127
245 25 129
246 25 132
247 25 135
248 25 137
249 25 142
250 25 144
251 25 148
252 25 15
253 25 156
254 25 158
255 25 159
256 25 161
257 25 162
258 25 165
259 25 166
260 25 167
261 25 168
262 25 172
263 25 174
264 25 19
265 25 20
266 25 21
267 25 24
268 25 26
269 25 28
270 25 31
271 25 33
272 25 35
273 25 36
274 25 37
275 25 38
276 25 40
277 25 47
278 25 71
279 25 72
280 25 73
281 25 74
282 25 77
283 25 87
284 25 89
285 25 93
286 28 100
287 28 102
288 28 11
289 28 112
290 28 120
291 28 133
292 28 136
293 28 142
294 28 144
295 28 146
296 28 151
297 28 155
298 28 158
299 28 161
300 28 163
301 28 173
302 28 178
303 28 18
304 28 182
305 28 25
306 28 29
307 28 32
308 28 45
309 28 50
310 28 57
311 28 65
312 28 7
313 28 78
314 28 82
315 31 108
316 31 114
317 31 14
318 31 147
319 31 53
320 31 59
321 31 67
322 32 108
323 32 114
324 32 117
325 32 134
326 32 14
327 32 147
328 32 156
329 32 159
330 32 171
331 32 23
332 32 30
333 32 47
334 32 53
335 32 59
336 32 67
337 33 108
338 33 114
339 33 117
340 33 132
341 33 134
342 33 14
343 33 141
344 33 147
345 33 156
346 33 159
347 33 162
348 33 171
349 33 23
350 33 28
351 33 30
352 33 47
353 33 53
354 33 59
355 33 67
356 33 77
357 33 92
358 33 99
359 34 108
360 34 115
361 34 117
362 34 132
363 34 134
364 34 14
365 34 141
366 34 147
367 34 156
368 34 159
369 34 162
370 34 171
371 34 176
372 34 23
373 34 28
374 34 30
375 34 43
376 34 47
377 34 5
378 34 53
379 34 60
380 34 68
381 34 77
382 34 83
383 34 92
384 34 99
385 35 108
386 35 117
387 35 14
388 35 147
389 35 152
390 35 47
391 35 53
392 35 79
393 36 188
394 38 100
395 38 102
396 38 120
397 38 133
398 38 142
399 38 144
400 38 146
401 38 155
402 38 163
403 38 29
404 38 50
405 38 78
406 38 82
407 39 93
408 40 105
409 40 20
410 40 21
411 41 106
412 41 109
413 41 110
414 41 112
415 41 114
416 41 118
417 41 119
418 41 121
419 41 122
420 41 125
421 41 126
422 41 127
423 41 129
424 41 149
425 41 150
426 41 16
427 41 165
428 41 167
429 41 168
430 41 17
431 41 36
432 41 37
433 41 38
434 41 40
435 41 48
436 41 49
437 41 54
438 41 55
439 41 57
440 41 58
441 41 59
442 41 62
443 41 63
444 41 65
445 41 66
446 41 67
447 41 71
448 41 73
449 41 74
450 48 100
451 48 102
452 48 104
453 48 106
454 48 108
455 48 109
456 48 110
457 48 113
458 48 115
459 48 132
460 48 134
461 48 137
462 48 139
463 48 14
464 48 142
465 48 143
466 48 146
467 48 148
468 48 150
469 48 153
470 48 156
471 48 158
472 48 159
473 48 161
474 48 162
475 48 25
476 48 48
477 48 54
478 48 58
479 48 61
480 48 63
481 48 67
482 48 70
483 48 73
484 48 75
485 48 76
486 48 78
487 48 79
488 48 81
489 48 82
490 48 84
491 48 85
492 48 86
493 48 89
494 48 9
495 48 94
496 48 96
497 48 97
498 51 104
499 51 106
500 51 114
501 51 120
502 51 126
503 51 13
504 51 133
505 51 138
506 51 142
507 51 144
508 51 146
509 51 15
510 51 150
511 51 154
512 51 158
513 51 161
514 51 163
515 51 168
516 51 176
517 51 179
518 51 183
519 51 20
520 51 26
521 51 30
522 51 36
523 51 43
524 51 51
525 51 57
526 51 59
527 51 6
528 51 63
529 51 66
530 51 68
531 51 71
532 51 78
533 51 81
534 51 89
535 51 93
536 51 97
537 54 122
538 54 128
539 54 16
540 54 164
541 54 170
542 54 188
543 54 22
544 54 47
545 54 53
546 54 73
547 54 94
548 55 102
549 55 112
550 55 122
551 55 128
552 55 131
553 55 136
554 55 148
555 55 156
556 55 159
557 55 16
558 55 164
559 55 170
560 55 22
561 55 27
562 55 40
563 55 47
564 55 53
565 55 61
566 55 73
567 55 76
568 55 79
569 55 84
570 55 94
571 55 97
572 56 102
573 56 105
574 56 112
575 56 122
576 56 128
577 56 131
578 56 136
579 56 14
580 56 143
581 56 145
582 56 148
583 56 153
584 56 156
585 56 159
586 56 16
587 56 162
588 56 164
589 56 170
590 56 22
591 56 25
592 56 27
593 56 40
594 56 47
595 56 53
596 56 58
597 56 61
598 56 67
599 56 70
600 56 74
601 56 76
602 56 79
603 56 88
604 56 95
605 56 99
606 57 102
607 57 105
608 57 11
609 57 112
610 57 122
611 57 129
612 57 131
613 57 136
614 57 14
615 57 143
616 57 145
617 57 148
618 57 153
619 57 156
620 57 159
621 57 16
622 57 162
623 57 164
624 57 171
625 57 177
626 57 23
627 57 25
628 57 27
629 57 40
630 57 47
631 57 5
632 57 53
633 57 58
634 57 61
635 57 64
636 57 67
637 57 70
638 57 73
639 57 76
640 57 79
641 57 83
642 57 88
643 57 91
644 57 94
645 58 117
646 58 122
647 58 16
648 58 164
649 58 180
650 58 27
651 58 40
652 58 47
653 58 53
654 61 100
655 61 106
656 61 120
657 61 144
658 61 146
659 61 15
660 61 154
661 61 163
662 61 183
663 61 26
664 61 30
665 61 36
666 61 43
667 61 59
668 61 6
669 61 68
670 61 71
671 61 75
672 61 86
673 61 89
674 61 96
675 63 109
676 63 9
677 64 110
678 64 123
679 64 124
680 64 126
681 64 127
682 64 128
683 64 165
684 64 166
685 64 168
686 64 17
687 64 170
688 64 174
689 64 175
690 64 18
691 64 20
692 64 21
693 64 22
694 64 28
695 64 30
696 64 31
697 64 32
698 64 34
699 64 36
700 64 37
701 64 38
702 64 41
703 64 42
704 64 44
705 64 45
706 64 49
707 64 50
708 64 55
709 64 56
710 71 100
711 71 101
712 71 104
713 71 108
714 71 110
715 71 112
716 71 114
717 71 125
718 71 127
719 71 130
720 71 137
721 71 139
722 71 141
723 71 142
724 71 143
725 71 144
726 71 147
727 71 149
728 71 152
729 71 153
730 71 154
731 71 158
732 71 180
733 71 182
734 71 19
735 71 24
736 71 26
737 71 38
738 71 42
739 71 44
740 71 47
741 71 51
742 71 53
743 71 54
744 71 55
745 71 56
746 71 59
747 71 61
748 71 64
749 71 66
750 71 67
751 71 75
752 71 76
753 71 77
754 71 78
755 71 81
756 71 86
757 71 91
758 71 92
759 71 93
760 71 99
761 72 188
762 74 104
763 74 106
764 74 110
765 74 113
766 74 120
767 74 126
768 74 148
769 74 166
770 74 170
771 74 174
772 74 24
773 74 27
774 74 32
775 74 41
776 74 43
777 74 45
778 74 50
779 74 52
780 74 60
781 74 66
782 74 68
783 74 72
784 74 84
785 74 89
786 77 28
787 77 34
788 77 37
789 77 46
790 77 80
791 77 85
792 78 108
793 78 111
794 78 117
795 78 124
796 78 146
797 78 167
798 78 170
799 78 174
800 78 28
801 78 34
802 78 37
803 78 46
804 78 58
805 78 64
806 78 80
807 78 85
808 78 90
809 79 103
810 79 108
811 79 111
812 79 117
813 79 124
814 79 129
815 79 146
816 79 157
817 79 168
818 79 172
819 79 23
820 79 26
821 79 28
822 79 34
823 79 37
824 79 42
825 79 44
826 79 46
827 79 51
828 79 58
829 79 64
830 79 67
831 79 80
832 79 85
833 80 103
834 80 108
835 80 111
836 80 117
837 80 124
838 80 129
839 80 146
840 80 153
841 80 157
842 80 164
843 80 176
844 80 23
845 80 26
846 80 28
847 80 35
848 80 37
849 80 42
850 80 44
851 80 46
852 80 51
853 80 58
854 80 64
855 80 67
856 80 80
857 80 85
858 80 9
859 80 94
860 81 117
861 81 28
862 81 37
863 81 46
864 81 69
865 81 80
866 81 85
867 84 104
868 84 106
869 84 120
870 84 169
871 84 173
872 84 24
873 84 27
874 84 43
875 84 45
876 84 52
877 84 68
878 84 72
879 85 130
880 85 158
881 86 100
882 86 101
883 86 137
884 86 139
885 86 142
886 86 143
887 86 144
888 86 54
889 86 55
890 86 56
891 86 75
892 86 76
893 86 77
894 86 78
895 87 118
896 87 119
897 87 121
898 87 122
899 87 154
900 87 19
901 87 29
902 87 30
903 87 32
904 87 33
905 87 34
906 87 39
907 87 40
908 87 48
909 87 49
910 87 82
911 87 83
912 87 87
913 87 88
914 90 188
915 94 100
916 94 101
917 94 102
918 94 104
919 94 106
920 94 107
921 94 109
922 94 111
923 94 112
924 94 115
925 94 117
926 94 120
927 94 122
928 94 125
929 94 126
930 94 127
931 94 13
932 94 130
933 94 132
934 94 133
935 94 136
936 94 137
937 94 139
938 94 141
939 94 142
940 94 144
941 94 145
942 94 147
943 94 156
944 94 158
945 94 160
946 94 161
947 94 164
948 94 165
949 94 168
950 94 170
951 94 177
952 94 32
953 94 34
954 94 38
955 94 44
956 94 49
957 94 52
958 94 53
959 94 54
960 94 55
961 94 58
962 94 59
963 94 6
964 94 60
965 94 61
966 94 63
967 94 64
968 94 65
969 94 66
970 94 72
971 94 74
972 94 75
973 94 77
974 94 99
975 97 106
976 97 108
977 97 112
978 97 115
979 97 118
980 97 121
981 97 133
982 97 137
983 97 141
984 97 144
985 97 151
986 97 156
987 97 161
988 97 165
989 97 182
990 97 22
991 97 30
992 97 33
993 97 39
994 97 44
995 97 50
996 97 71
997 97 77
998 97 80
999 97 84
1000 97 89
1001 97 97
1002 100 109
1003 100 130
1004 100 145
1005 100 158
1006 100 18
1007 100 24
1008 100 40
1009 100 46
1010 100 72
1011 100 85
1012 100 91
1013 101 104
1014 101 109
1015 101 112
1016 101 119
1017 101 130
1018 101 133
1019 101 137
1020 101 139
1021 101 142
1022 101 145
1023 101 148
1024 101 158
1025 101 161
1026 101 165
1027 101 18
1028 101 24
1029 101 31
1030 101 40
1031 101 46
1032 101 72
1033 101 75
1034 101 85
1035 101 91
1036 102 104
1037 102 107
1038 102 110
1039 102 114
1040 102 117
1041 102 119
1042 102 131
1043 102 135
1044 102 139
1045 102 142
1046 102 146
1047 102 148
1048 102 155
1049 102 159
1050 102 163
1051 102 167
1052 102 18
1053 102 24
1054 102 31
1055 102 38
1056 102 40
1057 102 46
1058 102 49
1059 102 73
1060 102 75
1061 102 85
1062 102 91
1063 103 104
1064 103 107
1065 103 109
1066 103 114
1067 103 117
1068 103 119
1069 103 126
1070 103 130
1071 103 139
1072 103 142
1073 103 145
1074 103 148
1075 103 155
1076 103 158
1077 103 18
1078 103 180
1079 103 25
1080 103 31
1081 103 38
1082 103 40
1083 103 47
1084 103 49
1085 103 72
1086 103 75
1087 103 78
1088 103 85
1089 103 92
1090 104 148
1091 104 18
1092 104 40
1093 104 68
1094 104 85
1095 107 0
1096 107 108
1097 107 111
1098 107 115
1099 107 118
1100 107 132
1101 107 136
1102 107 147
1103 107 151
1104 107 156
1105 107 160
1106 107 164
1107 107 168
1108 107 39
1109 107 50
1110 107 71
1111 107 74
1112 108 188
1113 109 100
1114 109 101
1115 109 102
1116 109 170
1117 109 59
1118 109 6
1119 109 60
1120 109 61
1121 109 64
1122 109 65
1123 109 66
1124 109 99
1125 110 127
1126 110 13
1127 110 149
1128 110 150
1129 110 152
1130 110 153
1131 110 177
1132 110 19
1133 110 20
1134 110 22
1135 110 23
1136 110 24
1137 110 27
1138 110 28
1139 110 29
1140 110 41
1141 110 42
1142 110 44
1143 110 46
1144 110 52
1145 110 54
1146 110 55
1147 110 86
1148 110 87
1149 110 89
1150 110 91
1151 110 95
1152 110 96
1153 117 112
1154 117 114
1155 117 116
1156 117 117
1157 117 119
1158 117 120
1159 117 122
1160 117 123
1161 117 124
1162 117 125
1163 117 134
1164 117 136
1165 117 137
1166 117 138
1167 117 139
1168 117 140
1169 117 142
1170 117 145
1171 117 147
1172 117 148
1173 117 150
1174 117 151
1175 117 154
1176 117 158
1177 117 16
1178 117 160
1179 117 179
1180 117 18
1181 117 181
1182 117 22
1183 117 26
1184 117 29
1185 117 30
1186 117 31
1187 117 32
1188 117 34
1189 117 36
1190 117 38
1191 117 40
1192 117 44
1193 117 54
1194 117 56
1195 117 59
1196 117 61
1197 117 63
1198 117 78
1199 117 83
1200 117 94
1201 117 97
1202 120 100
1203 120 105
1204 120 113
1205 120 116
1206 120 119
1207 120 12
1208 120 122
1209 120 130
1210 120 136
1211 120 14
1212 120 147
1213 120 150
1214 120 152
1215 120 154
1216 120 156
1217 120 159
1218 120 165
1219 120 169
1220 120 17
1221 120 173
1222 120 19
1223 120 25
1224 120 27
1225 120 35
1226 120 37
1227 120 39
1228 120 43
1229 120 45
1230 120 48
1231 120 52
1232 120 55
1233 120 60
1234 120 64
1235 120 69
1236 120 7
1237 120 78
1238 120 84
1239 120 89
1240 120 9
1241 120 95
1242 123 101
1243 123 107
1244 123 21
1245 123 65
1246 123 71
1247 123 74
1248 123 80
1249 123 85
1250 123 91
1251 123 96
1252 124 101
1253 124 107
1254 124 114
1255 124 117
1256 124 120
1257 124 127
1258 124 134
1259 124 145
1260 124 148
1261 124 157
1262 124 166
1263 124 169
1264 124 173
1265 124 21
1266 124 40
1267 124 53
1268 124 58
1269 124 65
1270 124 71
1271 124 74
1272 124 80
1273 124 85
1274 124 91
1275 124 96
1276 125 101
1277 125 107
1278 125 112
1279 125 114
1280 125 117
1281 125 120
1282 125 127
1283 125 134
1284 125 145
1285 125 148
1286 125 151
1287 125 153
1288 125 157
1289 125 16
1290 125 167
1291 125 171
1292 125 18
1293 125 21
1294 125 26
1295 125 34
1296 125 36
1297 125 38
1298 125 40
1299 125 44
1300 125 53
1301 125 58
1302 125 63
1303 125 65
1304 125 71
1305 125 74
1306 125 80
1307 125 83
1308 125 85
1309 125 91
1310 125 94
1311 125 96
1312 126 101
1313 126 108
1314 126 11
1315 126 112
1316 126 114
1317 126 117
1318 126 120
1319 126 127
1320 126 134
1321 126 145
1322 126 148
1323 126 151
1324 126 153
1325 126 157
1326 126 16
1327 126 175
1328 126 18
1329 126 188
1330 126 21
1331 126 26
1332 126 34
1333 126 36
1334 126 38
1335 126 40
1336 126 44
1337 126 46
1338 126 5
1339 126 53
1340 126 58
1341 126 63
1342 126 65
1343 126 72
1344 126 74
1345 126 8
1346 126 81
1347 126 83
1348 126 85
1349 126 92
1350 126 94
1351 126 96
1352 127 101
1353 127 127
1354 127 162
1355 127 21
1356 127 40
1357 127 49
1358 127 65
1359 127 74
1360 127 85
1361 127 96
1362 130 113
1363 130 12
1364 130 130
1365 130 14
1366 130 152
1367 130 154
1368 130 156
1369 130 165
1370 130 168
1371 130 17
1372 130 172
1373 130 19
1374 130 27
1375 130 35
1376 130 37
1377 130 39
1378 130 43
1379 130 45
1380 130 52
1381 130 64
1382 130 84
1383 130 9
1384 130 95
1385 132 124
1386 132 29
1387 132 30
1388 132 31
1389 132 32
1390 133 102
1391 133 103
1392 133 105
1393 133 106
1394 133 107
1395 133 125
1396 133 128
1397 133 129
1398 133 131
1399 133 132
1400 133 138
1401 133 139
1402 133 140
1403 133 142
1404 133 23
1405 133 24
1406 133 41
1407 133 42
1408 133 66
1409 133 67
1410 133 69
1411 133 70
1412 133 71
1413 133 75
1414 133 76
1415 133 78
1416 133 80
1417 133 86
1418 133 87
1419 133 89
1420 133 90
1421 133 91
1422 133 98
1423 133 99
1424 140 105
1425 140 110
1426 140 111
1427 140 112
1428 140 113
1429 140 115
1430 140 118
1431 140 124
1432 140 129
1433 140 130
1434 140 131
1435 140 132
1436 140 133
1437 140 136
1438 140 144
1439 140 147
1440 140 148
1441 140 149
1442 140 156
1443 140 18
1444 140 19
1445 140 20
1446 140 23
1447 140 25
1448 140 27
1449 140 29
1450 140 32
1451 140 33
1452 140 35
1453 140 36
1454 140 47
1455 140 6
1456 140 72
1457 140 74
1458 140 79
1459 140 86
1460 140 88
1461 140 90
1462 140 91
1463 140 92
1464 140 95
1465 140 96
1466 140 97
1467 140 98
1468 143 10
1469 143 105
1470 143 119
1471 143 124
1472 143 13
1473 143 145
1474 143 167
1475 143 17
1476 143 172
1477 143 178
1478 143 182
1479 143 24
1480 143 28
1481 143 32
1482 143 35
1483 143 37
1484 143 42
1485 143 48
1486 143 53
1487 143 61
1488 143 66
1489 143 72
1490 143 75
1491 143 79
1492 143 81
1493 144 188
1494 146 101
1495 146 107
1496 146 120
1497 146 126
1498 146 164
1499 146 38
1500 146 44
1501 146 49
1502 146 55
1503 146 62
1504 146 68
1505 147 101
1506 147 107
1507 147 120
1508 147 126
1509 147 146
1510 147 175
1511 147 178
1512 147 182
1513 147 22
1514 147 33
1515 147 38
1516 147 44
1517 147 49
1518 147 55
1519 147 62
1520 147 68
1521 148 101
1522 148 107
1523 148 118
1524 148 120
1525 148 126
1526 148 135
1527 148 144
1528 148 155
1529 148 176
1530 148 180
1531 148 22
1532 148 33
1533 148 36
1534 148 38
1535 148 44
1536 148 47
1537 148 49
1538 148 55
1539 148 62
1540 148 68
1541 148 71
1542 148 74
1543 148 78
1544 149 101
1545 149 108
1546 149 11
1547 149 118
1548 149 120
1549 149 127
1550 149 135
1551 149 144
1552 149 150
1553 149 155
1554 149 22
1555 149 33
1556 149 36
1557 149 38
1558 149 45
1559 149 47
1560 149 49
1561 149 56
1562 149 62
1563 149 69
1564 149 71
1565 149 74
1566 149 78
1567 149 8
1568 149 82
1569 150 101
1570 150 120
1571 150 38
1572 150 49
1573 150 62
1574 153 119
1575 153 145
1576 153 167
1577 153 172
1578 153 177
1579 153 181
1580 153 37
1581 153 48
1582 153 72
1583 153 75
1584 153 79
1585 153 81
1586 155 130
1587 155 131
1588 155 132
1589 155 133
1590 155 19
1591 155 20
1592 155 6
1593 155 91
1594 156 102
1595 156 103
1596 156 105
1597 156 107
1598 156 111
1599 156 112
1600 156 113
1601 156 115
1602 156 121
1603 156 122
1604 156 124
1605 156 126
1606 156 39
1607 156 40
1608 156 42
1609 156 43
1610 156 44
1611 156 50
1612 156 51
1613 156 53
1614 156 54
1615 156 55
1616 156 58
1617 156 59
1618 156 60
1619 156 63
1620 156 64
1621 156 66
1622 156 67
1623 156 68
1624 156 92
1625 156 95
1626 156 97
1627 156 98
1628 162 188
1629 163 105
1630 163 110
1631 163 112
1632 163 127
1633 163 128
1634 163 129
1635 163 130
1636 163 141
1637 163 15
1638 163 180
1639 163 182
1640 163 20
1641 163 24
1642 163 27
1643 163 31
1644 163 34
1645 163 36
1646 163 39
1647 163 43
1648 163 47
1649 163 49
1650 163 59
1651 163 65
1652 163 70
1653 163 71
1654 163 72
1655 163 73
1656 163 75
1657 163 82
1658 163 91
1659 163 98
1660 166 105
1661 166 111
1662 166 113
1663 166 118
1664 166 126
1665 166 136
1666 166 14
1667 166 142
1668 166 147
1669 166 155
1670 166 163
1671 166 171
1672 166 18
1673 166 23
1674 166 25
1675 166 27
1676 166 29
1677 166 31
1678 166 42
1679 166 46
1680 166 48
1681 166 50
1682 166 53
1683 166 57
1684 166 59
1685 166 65
1686 166 8
1687 166 82
1688 166 88
1689 169 101
1690 169 107
1691 169 114
1692 169 120
1693 169 132
1694 169 138
1695 169 143
1696 169 149
1697 169 157
1698 169 165
1699 169 173
1700 169 19
1701 169 38
1702 169 61
1703 169 67
1704 169 78
1705 169 84
1706 170 101
1707 170 107
1708 170 114
1709 170 120
1710 170 132
1711 170 138
1712 170 143
1713 170 149
1714 170 15
1715 170 157
1716 170 165
1717 170 173
1718 170 19
1719 170 38
1720 170 43
1721 170 61
1722 170 67
1723 170 78
1724 170 84
1725 171 101
1726 171 107
1727 171 110
1728 171 112
1729 171 114
1730 171 120
1731 171 132
1732 171 138
1733 171 141
1734 171 143
1735 171 149
1736 171 15
1737 171 157
1738 171 165
1739 171 173
1740 171 19
1741 171 24
1742 171 26
1743 171 30
1744 171 38
1745 171 43
1746 171 47
1747 171 49
1748 171 58
1749 171 61
1750 171 67
1751 171 78
1752 171 84
1753 172 101
1754 172 108
1755 172 110
1756 172 112
1757 172 114
1758 172 121
1759 172 132
1760 172 139
1761 172 141
1762 172 143
1763 172 15
1764 172 150
1765 172 158
1766 172 166
1767 172 174
1768 172 176
1769 172 19
1770 172 24
1771 172 26
1772 172 30
1773 172 38
1774 172 43
1775 172 47
1776 172 49
1777 172 51
1778 172 58
1779 172 61
1780 172 68
1781 172 78
1782 172 85
1783 172 87
1784 173 101
1785 173 114
1786 173 132
1787 173 143
1788 173 15
1789 173 19
1790 173 38
1791 173 43
1792 173 5
1793 173 54
1794 173 61
1795 173 78
1796 176 111
1797 176 113
1798 176 14
1799 176 142
1800 176 18
1801 176 25
1802 176 27
1803 176 29
1804 176 31
1805 176 46
1806 176 48
1807 176 50
1808 176 57
1809 176 59
1810 176 8
1811 176 88
1812 178 128
1813 178 129
1814 178 130
1815 178 34
1816 178 36
1817 178 91
1818 179 102
1819 179 103
1820 179 105
1821 179 107
1822 179 115
1823 179 116
1824 179 118
1825 179 120
1826 179 124
1827 179 125
1828 179 133
1829 179 134
1830 179 136
1831 179 137
1832 179 138
1833 179 144
1834 179 145
1835 179 147
1836 179 149
1837 179 152
1838 179 153
1839 179 155
1840 179 157
1841 179 16
1842 179 160
1843 179 161
1844 179 163
1845 179 165
1846 179 169
1847 179 17
1848 179 171
1849 179 173
1850 179 21
1851 179 22
1852 179 40
1853 179 41
1854 179 44
1855 179 45
1856 179 62
1857 179 63
1858 179 65
1859 179 67
1860 179 71
1861 179 72
1862 179 73
1863 179 75
1864 179 79
1865 179 80
1866 179 82
1867 179 84
1868 179 98
1869 180 188
1870 186 100
1871 186 101
1872 186 102
1873 186 106
1874 186 117
1875 186 123
1876 186 129
1877 186 135
1878 186 136
1879 186 137
1880 186 138
1881 186 15
1882 186 172
1883 186 21
1884 186 22
1885 186 23
1886 186 25
1887 186 27
1888 186 29
1889 186 31
1890 186 32
1891 186 35
1892 186 37
1893 186 48
1894 186 50
1895 186 52
1896 186 53
1897 186 64
1898 186 65
1899 186 66
1900 186 67
1901 186 68
1902 186 70
1903 186 72
1904 186 73
1905 186 87
1906 186 94
1907 186 95
1908 186 96
1909 186 99
1910 189 12
1911 189 123
1912 189 129
1913 189 145
1914 189 153
1915 189 16
1916 189 161
1917 189 167
1918 189 169
1919 189 20
1920 189 26
1921 189 28
1922 189 31
1923 189 33
1924 189 44
1925 189 49
1926 189 52
1927 189 54
1928 189 59
1929 189 72
1930 189 76
1931 189 8
1932 189 81
1933 189 90
1934 189 93
1935 192 125
1936 192 131
1937 192 141
1938 192 147
1939 192 155
1940 192 163
1941 192 55
1942 192 61
1943 192 77
1944 192 83
1945 192 86
1946 193 12
1947 193 125
1948 193 131
1949 193 141
1950 193 147
1951 193 155
1952 193 163
1953 193 29
1954 193 41
1955 193 5
1956 193 50
1957 193 55
1958 193 61
1959 193 70
1960 193 73
1961 193 77
1962 193 8
1963 193 83
1964 193 86
1965 194 10
1966 194 105
1967 194 122
1968 194 125
1969 194 131
1970 194 141
1971 194 147
1972 194 15
1973 194 155
1974 194 163
1975 194 25
1976 194 27
1977 194 29
1978 194 32
1979 194 41
1980 194 48
1981 194 50
1982 194 53
1983 194 55
1984 194 6
1985 194 61
1986 194 70
1987 194 73
1988 194 77
1989 194 83
1990 194 86
1991 195 105
1992 195 122
1993 195 125
1994 195 132
1995 195 141
1996 195 148
1997 195 15
1998 195 156
1999 195 164
2000 195 166
2001 195 178
2002 195 25
2003 195 27
2004 195 29
2005 195 32
2006 195 41
2007 195 48
2008 195 50
2009 195 53
2010 195 55
2011 195 62
2012 195 70
2013 195 73
2014 195 77
2015 195 84
2016 195 86
2017 195 91
2018 196 125
2019 196 141
2020 196 17
2021 196 41
2022 196 55
2023 196 73
2024 196 77
2025 196 86
2026 198 188
2027 199 11
2028 199 123
2029 199 16
2030 199 167
2031 199 169
2032 199 20
2033 199 26
2034 199 28
2035 199 33
2036 199 44
2037 199 49
2038 199 54
2039 199 7
2040 199 76
2041 200 106
2042 201 172
2043 201 22
2044 201 23
2045 201 35
2046 201 37
2047 201 65
2048 201 66
2049 201 67
2050 201 68
2051 201 95
2052 202 101
2053 202 102
2054 202 117
2055 202 126
2056 202 127
2057 202 129
2058 202 131
2059 202 135
2060 202 137
2061 202 138
2062 202 142
2063 202 143
2064 202 145
2065 202 147
2066 202 150
2067 202 151
2068 202 153
2069 202 155
2070 202 159
2071 202 161
2072 202 163
2073 202 42
2074 202 43
2075 202 45
2076 202 46
2077 202 56
2078 202 57
2079 202 59
2080 202 60
2081 202 61
2082 202 74
2083 202 75
2084 202 78
2085 202 79
2086 202 81
2087 202 82
2088 202 83
2089 202 88
2090 202 89
2091 202 96
2092 202 99
2093 209 100
2094 209 101
2095 209 103
2096 209 11
2097 209 110
2098 209 126
2099 209 128
2100 209 129
2101 209 132
2102 209 134
2103 209 137
2104 209 139
2105 209 141
2106 209 143
2107 209 145
2108 209 150
2109 209 157
2110 209 159
2111 209 162
2112 209 163
2113 209 166
2114 209 168
2115 209 171
2116 209 52
2117 209 63
2118 209 65
2119 209 67
2120 209 68
2121 209 73
2122 209 77
2123 209 78
2124 209 79
2125 209 80
2126 209 82
2127 209 85
2128 209 88
2129 209 9
2130 209 92
2131 209 94
2132 209 98
2133 209 99
2134 212 110
2135 212 119
2136 212 128
2137 212 130
2138 212 133
2139 212 138
2140 212 14
2141 212 142
2142 212 145
2143 212 148
2144 212 150
2145 212 152
2146 212 154
2147 212 160
2148 212 167
2149 212 179
2150 212 183
2151 212 21
2152 212 29
2153 212 34
2154 212 42
2155 212 47
2156 212 53
2157 212 58
2158 212 64
2159 212 67
2160 212 71
2161 212 76
2162 212 86
2163 212 89
2164 212 93
2165 212 95
2166 215 106
2167 215 112
2168 215 115
2169 215 121
2170 215 17
2171 215 23
2172 215 30
2173 215 36
2174 215 43
2175 215 49
2176 215 54
2177 215 60
2178 215 72
2179 216 106
2180 216 112
2181 216 115
2182 216 121
2183 216 126
2184 216 131
2185 216 136
2186 216 143
2187 216 165
2188 216 17
2189 216 188
2190 216 23
2191 216 30
2192 216 36
2193 216 43
2194 216 49
2195 216 54
2196 216 60
2197 216 65
2198 216 68
2199 216 72
2200 217 106
2201 217 112
2202 217 115
2203 217 121
2204 217 126
2205 217 129
2206 217 131
2207 217 136
2208 217 141
2209 217 143
2210 217 149
2211 217 159
2212 217 165
2213 217 17
2214 217 170
2215 217 23
2216 217 30
2217 217 36
2218 217 43
2219 217 49
2220 217 52
2221 217 54
2222 217 60
2223 217 63
2224 217 65
2225 217 68
2226 217 72
2227 217 85
2228 217 88
2229 217 92
2230 217 94
2231 218 106
2232 218 113
2233 218 115
2234 218 122
2235 218 126
2236 218 129
2237 218 13
2238 218 131
2239 218 136
2240 218 141
2241 218 143
2242 218 146
2243 218 149
2244 218 153
2245 218 159
2246 218 165
2247 218 17
2248 218 170
2249 218 177
2250 218 24
2251 218 30
2252 218 37
2253 218 43
2254 218 5
2255 218 50
2256 218 52
2257 218 54
2258 218 61
2259 218 63
2260 218 65
2261 218 68
2262 218 72
2263 218 85
2264 218 88
2265 218 92
2266 218 94
2267 219 106
2268 219 115
2269 219 17
2270 219 180
2271 219 30
2272 219 43
2273 219 54
2274 219 68
2275 219 72
2276 222 130
2277 222 14
2278 222 142
2279 222 150
2280 222 152
2281 222 154
2282 222 160
2283 222 183
2284 222 53
2285 222 64
2286 222 71
2287 222 86
2288 222 89
2289 222 93
2290 222 95
2291 223 171
2292 224 157
2293 224 163
2294 225 100
2295 225 101
2296 225 103
2297 225 107
2298 225 108
2299 225 110
2300 225 112
2301 225 116
2302 225 117
2303 225 119
2304 225 120
2305 225 121
2306 225 18
2307 225 19
2308 225 21
2309 225 23
2310 225 27
2311 225 28
2312 225 31
2313 225 32
2314 225 34
2315 225 35
2316 225 36
2317 225 39
2318 225 40
2319 225 41
2320 225 44
2321 225 45
2322 225 47
2323 225 48
2324 225 49
2325 225 55
2326 225 56
2327 225 58
2328 225 59
2329 225 60
2330 225 69
2331 225 70
2332 225 74
2333 225 75
2334 225 78
2335 225 79
2336 225 80
2337 225 82
2338 225 99
2339 232 101
2340 232 108
2341 232 110
2342 232 111
2343 232 112
2344 232 113
2345 232 114
2346 232 115
2347 232 117
2348 232 128
2349 232 130
2350 232 131
2351 232 138
2352 232 141
2353 232 144
2354 232 155
2355 232 165
2356 232 167
2357 232 169
2358 232 170
2359 232 173
2360 232 174
2361 232 177
2362 232 19
2363 232 24
2364 232 26
2365 232 29
2366 232 31
2367 232 34
2368 232 36
2369 232 39
2370 232 42
2371 232 44
2372 232 66
2373 232 70
2374 232 72
2375 232 73
2376 232 75
2377 232 80
2378 232 85
2379 232 87
2380 232 89
2381 232 91
2382 232 93
2383 232 94
2384 234 188
2385 235 101
2386 235 118
2387 235 123
2388 235 129
2389 235 136
2390 235 139
2391 235 141
2392 235 144
2393 235 150
2394 235 156
2395 235 159
2396 235 163
2397 235 166
2398 235 170
2399 235 174
2400 235 181
2401 235 25
2402 235 30
2403 235 35
2404 235 43
2405 235 45
2406 235 48
2407 235 50
2408 235 53
2409 235 55
2410 235 61
2411 235 69
2412 235 72
2413 235 75
2414 235 80
2415 235 90
2416 235 93
2417 235 95
2418 238 103
2419 238 108
2420 238 119
2421 238 125
2422 238 146
2423 238 152
2424 238 167
2425 238 57
2426 238 63
2427 238 76
2428 238 82
2429 238 85
2430 238 97
2431 239 103
2432 239 108
2433 239 119
2434 239 125
2435 239 146
2436 239 152
2437 239 167
2438 239 170
2439 239 174
2440 239 23
2441 239 28
2442 239 33
2443 239 57
2444 239 63
2445 239 66
2446 239 70
2447 239 73
2448 239 76
2449 239 82
2450 239 85
2451 239 91
2452 239 97
2453 240 103
2454 240 109
2455 240 117
2456 240 119
2457 240 125
2458 240 128
2459 240 138
2460 240 140
2461 240 143
2462 240 146
2463 240 152
2464 240 155
2465 240 165
2466 240 168
2467 240 172
2468 240 23
2469 240 28
2470 240 33
2471 240 42
2472 240 44
2473 240 57
2474 240 63
2475 240 66
2476 240 70
2477 240 73
2478 240 76
2479 240 82
2480 240 86
2481 240 89
2482 240 91
2483 240 94
2484 240 97
2485 241 104
2486 241 108
2487 241 117
2488 241 119
2489 241 126
2490 241 128
2491 241 138
2492 241 140
2493 241 143
2494 241 146
2495 241 153
2496 241 155
2497 241 157
2498 241 165
2499 241 167
2500 241 179
2501 241 23
2502 241 28
2503 241 33
2504 241 42
2505 241 44
2506 241 46
2507 241 49
2508 241 52
2509 241 57
2510 241 64
2511 241 66
2512 241 70
2513 241 73
2514 241 76
2515 241 83
2516 241 85
2517 241 89
2518 241 9
2519 241 91
2520 241 94
2521 241 97
2522 242 119
2523 242 133
2524 242 146
2525 242 57
2526 242 66
2527 242 76
2528 242 97
2529 245 110
2530 245 118
2531 245 129
2532 245 136
2533 245 139
2534 245 141
2535 245 144
2536 245 156
2537 245 166
2538 245 169
2539 245 173
2540 245 43
2541 245 45
2542 245 50
2543 245 53
2544 245 55
2545 245 69
2546 245 87
2547 245 90
2548 245 95
2549 247 112
2550 247 113
2551 247 114
2552 247 115
2553 247 131
2554 247 177
2555 247 39
2556 248 101
2557 248 103
2558 248 120
2559 248 121
2560 248 123
2561 248 124
2562 248 125
2563 248 147
2564 248 148
2565 248 150
2566 248 151
2567 248 152
2568 248 19
2569 248 58
2570 248 59
2571 248 61
2572 248 62
2573 248 63
2574 248 67
2575 248 68
2576 248 77
2577 248 78
2578 248 80
2579 248 82
2580 248 98
2581 248 99
2582 252 188
2583 255 101
2584 255 102
2585 255 103
2586 255 104
2587 255 106
2588 255 112
2589 255 117
2590 255 118
2591 255 119
2592 255 121
2593 255 122
2594 255 123
2595 255 124
2596 255 126
2597 255 128
2598 255 129
2599 255 130
2600 255 131
2601 255 132
2602 255 134
2603 255 138
2604 255 140
2605 255 141
2606 255 143
2607 255 144
2608 255 145
2609 255 148
2610 255 149
2611 255 15
2612 255 150
2613 255 152
2614 255 153
2615 255 156
2616 255 166
2617 255 168
2618 255 170
2619 255 172
2620 255 175
2621 255 18
2622 255 181
2623 255 20
2624 255 24
2625 255 26
2626 255 27
2627 255 28
2628 255 34
2629 255 36
2630 255 53
2631 255 54
2632 255 55
2633 255 56
2634 255 67
2635 255 69
2636 255 70
2637 255 72
2638 255 74
2639 255 75
2640 255 77
2641 255 78
2642 255 82
2643 255 83
2644 255 85
2645 255 87
2646 255 99
2647 258 100
2648 258 11
2649 258 112
2650 258 128
2651 258 138
2652 258 146
2653 258 151
2654 258 157
2655 258 16
2656 258 160
2657 258 164
2658 258 167
2659 258 171
2660 258 175
2661 258 25
2662 258 44
2663 258 52
2664 258 6
2665 258 62
2666 258 70
2667 258 74
2668 258 77
2669 258 81
2670 258 86
2671 258 9
2672 258 90
2673 258 93
2674 258 97
2675 261 108
2676 261 114
2677 261 143
2678 261 40
2679 261 46
2680 261 58
2681 261 64
2682 261 67
2683 262 108
2684 262 114
2685 262 126
2686 262 143
2687 262 165
2688 262 40
2689 262 46
2690 262 58
2691 262 64
2692 262 67
2693 262 70
2694 262 72
2695 262 75
2696 262 78
2697 262 87
2698 263 108
2699 263 114
2700 263 126
2701 263 137
2702 263 143
2703 263 15
2704 263 156
2705 263 165
2706 263 24
2707 263 40
2708 263 46
2709 263 58
2710 263 64
2711 263 68
2712 263 72
2713 263 75
2714 263 78
2715 263 85
2716 263 87
2717 263 99
2718 264 108
2719 264 115
2720 264 126
2721 264 137
2722 264 143
2723 264 15
2724 264 156
2725 264 158
2726 264 165
2727 264 24
2728 264 30
2729 264 40
2730 264 47
2731 264 5
2732 264 58
2733 264 65
2734 264 67
2735 264 72
2736 264 75
2737 264 78
2738 264 8
2739 264 85
2740 264 87
2741 264 91
2742 264 99
2743 265 108
2744 265 161
2745 265 40
2746 265 58
2747 265 78
2748 265 87
2749 265 94
2750 268 100
2751 268 11
2752 268 138
2753 268 146
2754 268 151
2755 268 157
2756 268 16
2757 268 164
2758 268 25
2759 268 6
2760 268 69
2761 268 81
2762 268 86
2763 268 9
2764 268 90
2765 268 97
2766 270 102
2767 270 103
2768 270 104
2769 270 106
2770 270 118
2771 270 122
2772 270 123
2773 270 124
2774 270 141
2775 270 153
2776 270 18
2777 270 188
2778 270 20
2779 270 27
2780 270 54
2781 270 55
2782 270 56
2783 270 83
2784 271 109
2785 271 110
2786 271 112
2787 271 114
2788 271 119
2789 271 130
2790 271 131
2791 271 132
2792 271 134
2793 271 181
2794 271 28
2795 271 41
2796 271 42
2797 271 44
2798 271 46
2799 271 50
2800 271 51
2801 271 59
2802 271 60
2803 271 62
2804 271 63
2805 271 64
2806 271 79
2807 271 80
2808 271 88
2809 271 89
2810 278 106
2811 278 117
2812 278 118
2813 278 119
2814 278 122
2815 278 125
2816 278 128
2817 278 130
2818 278 136
2819 278 141
2820 278 143
2821 278 144
2822 278 146
2823 278 149
2824 278 155
2825 278 160
2826 278 163
2827 278 164
2828 278 165
2829 278 166
2830 278 169
2831 278 17
2832 278 179
2833 278 181
2834 278 19
2835 278 21
2836 278 24
2837 278 25
2838 278 29
2839 278 31
2840 278 33
2841 278 35
2842 278 37
2843 278 38
2844 278 42
2845 278 44
2846 278 45
2847 278 47
2848 278 62
2849 278 70
2850 278 72
2851 278 89
2852 278 95
2853 278 99
2854 281 106
2855 281 112
2856 281 114
2857 281 123
2858 281 126
2859 281 129
2860 281 136
2861 281 143
2862 281 145
2863 281 147
2864 281 149
2865 281 155
2866 281 161
2867 281 170
2868 281 174
2869 281 18
2870 281 22
2871 281 30
2872 281 34
2873 281 44
2874 281 46
2875 281 48
2876 281 51
2877 281 56
2878 281 71
2879 281 73
2880 281 79
2881 281 87
2882 281 89
2883 281 93
2884 281 95
2885 281 97
2886 284 102
2887 284 108
2888 284 132
2889 284 138
2890 284 151
2891 284 157
2892 284 52
2893 284 58
2894 284 75
2895 284 81
2896 285 102
2897 285 108
2898 285 127
2899 285 132
2900 285 138
2901 285 141
2902 285 151
2903 285 157
2904 285 16
2905 285 28
2906 285 42
2907 285 52
2908 285 58
2909 285 75
2910 285 81
2911 286 102
2912 286 108
2913 286 122
2914 286 125
2915 286 127
2916 286 132
2917 286 138
2918 286 141
2919 286 144
2920 286 146
2921 286 148
2922 286 151
2923 286 157
2924 286 16
2925 286 160
2926 286 169
2927 286 21
2928 286 28
2929 286 42
2930 286 45
2931 286 47
2932 286 52
2933 286 58
2934 286 61
2935 286 70
2936 286 72
2937 286 75
2938 286 81
2939 286 88
2940 286 94
2941 287 102
2942 287 109
2943 287 111
2944 287 118
2945 287 122
2946 287 125
2947 287 127
2948 287 132
2949 287 139
2950 287 141
2951 287 144
2952 287 146
2953 287 148
2954 287 151
2955 287 158
2956 287 16
2957 287 160
2958 287 169
2959 287 175
2960 287 21
2961 287 28
2962 287 42
2963 287 45
2964 287 47
2965 287 49
2966 287 52
2967 287 59
2968 287 61
2969 287 70
2970 287 72
2971 287 75
2972 287 82
2973 287 88
2974 287 9
2975 287 91
2976 287 94
2977 288 102
2978 288 132
2979 288 151
2980 288 171
2981 288 188
2982 288 52
2983 288 75
2984 291 112
2985 291 114
2986 291 123
2987 291 126
2988 291 145
2989 291 147
2990 291 149
2991 291 161
2992 291 170
2993 291 174
2994 291 22
2995 291 46
2996 291 48
2997 291 71
2998 291 73
2999 291 89
3000 291 95
3001 291 97
3002 293 163
3003 293 164
3004 293 165
3005 293 166
3006 293 24
3007 293 25
3008 293 38
3009 293 99
3010 294 103
3011 294 104
3012 294 106
3013 294 108
3014 294 119
3015 294 133
3016 294 134
3017 294 136
3018 294 138
3019 294 152
3020 294 153
3021 294 155
3022 294 157
3023 294 53
3024 294 54
3025 294 56
3026 294 57
3027 294 58
3028 294 76
3029 294 77
3030 294 79
3031 294 80
3032 294 81
3033 294 84
3034 294 85
3035 294 86
3036 299 101
3037 299 104
3038 299 11
3039 299 111
3040 299 114
3041 299 121
3042 299 131
3043 299 141
3044 299 151
3045 299 161
3046 299 171
3047 299 181
3048 299 21
3049 299 31
3050 299 41
3051 299 51
3052 299 61
3053 299 71
3054 299 81
3055 299 91
3056 299 94
EOF
